<number of tasks>
20


<number of equipment>
5


<cycle time>
1000


<investment costs>
1,19176
2,20951
3,9444
4,13039
5,16816


<task times>
1,256,228,-1,259,-1
2,248,230,-1,-1,258
3,264,235,-1,-1,305
4,296,-1,422,-1,-1
5,292,262,-1,342,-1
6,265,228,-1,362,-1
7,260,-1,283,-1,-1
8,397,450,-1,-1,409
9,188,219,-1,323,-1
10,290,262,-1,-1,351
11,277,378,-1,399,-1
12,142,156,-1,-1,243
13,248,-1,373,-1,-1
14,299,343,-1,397,-1
15,432,424,-1,392,-1
16,220,88,-1,151,-1
17,159,203,-1,374,-1
18,261,194,-1,-1,166
19,268,232,-1,-1,294
20,215,159,-1,223,-1


<precedence relations>
1,5
1,7
1,9
2,3
2,4
2,5
3,6
4,6
5,8
6,7
6,8
6,9
7,10
8,10
8,11
9,11
9,14
9,15
10,12
11,13
12,14
12,15
13,16
13,17
14,17
14,19
15,16
15,18
16,19
16,20
17,20
18,19


<task types>
1,3
2,2
3,2
4,1
5,3
6,3
7,1
8,2
9,3
10,2
11,3
12,2
13,1
14,3
15,3
16,3
17,3
18,2
19,2
20,3


<line depot>
1,3
2,1
3,0
4,2
5,0


<processing costs>
1,21600
2,14400
3,7200
4,7200
5,7200


<saving costs>
1,1917
2,2095
3,944
4,1303
5,1681


<end>
